10990582995810150506,5,1,2,014,7,1,2,015,1,1,2,010,8,1,2,011,9,1,2,07,6,1,2,011,13,1,2,012,11,1,2,012,4,1,2,010,14,1,2,08,5,1,2,010,4,1,2,015,8,1,2,07,13,1,2,04,1,1,2,04,4,1,2,012,5,1,2,02,6,1,2,013,12,1,2,010,4,1,2,01,4,1,2,014,1,1,2,013,13,1,2,02,13,1,2,011,9,1,2,02,12,1,2,015,12,1,2,013,5,1,2,08,2,1,2,06,11,1,2,09,6,1,2,06,4,1,2,05,2,1,2,01,13,1,2,05,4,1,2,010,10,1,2,015,12,1,2,06,5,1,2,013,1,1,2,012,9,1,2,010,8,1,2,03,8,1,2,01,9,1,2,07,12,1,2,02,14,1,2,01,15,1,2,08,14,1,2,013,11,1,2,013,1,1,2,010,3,1,2,0